182
0 18 119 60 71 175 106 54 147 2 
32 124 180 44 36 21 57 64 62 3 
143 127 145 17 52 129 125 14 86 94 
29 96 25 40 123 34 78 43 70 173 
95 82 174 117 92 158 8 109 112 30 
87 150 118 100 172 98 171 19 77 134 
23 39 159 136 55 4 101 10 28 154 
22 177 51 141 103 104 130 69 42 27 
6 165 76 179 105 81 126 74 15 80 
163 88 151 153 120 20 168 128 35 31 
90 89 149 16 83 110 114 1 79 68 
26 46 170 161 45 47 157 113 133 67 
59 144 12 107 48 115 49 7 38 41 
37 84 135 162 58 99 50 166 152 13 
176 9 56 178 121 93 72 33 167 116 
122 11 156 146 164 65 155 132 53 148 
85 142 66 169 73 97 160 24 131 111 
137 102 91 138 108 5 75 181 61 63 
139 140 
